\ Model mip1
\ LP format - for model browsing. Use MPS format to capture full model detail.
Maximize
  0.5877760757681552 f(x_0) + 0.5735062304554908 f(x_1)
   + 0.7130816379721809 f(x_2) + 0.3188180321648429 f(x_3)
   + 0.6875828152147029 f(x_4) + 0.638686320888047 f(x_5)
   + 0.5383429297372468 f(x_6) + 0.6928266947450805 f(x_7)
   + 0.5288725575658254 f(x_8) + 0.2547733800373181 f(x_9)
   + 0.6468176899235462 f(x_10) + 0.570467042796508 f(x_11)
   + 0.3190292285511492 f(x_12) + 0.3496841284336072 f(x_13)
   + 0.561690178410827 f(x_14) + 0.697554751790061 f(x_15)
   + 0.480165957550415 f(x_16) + 0.5877582213226985 f(x_17)
   + 0.6837020035318614 f(x_18) + 0.7412939126117308 f(x_19)
   + 0.4374358779232815 f(x_20) + 0.3849908486192895 f(x_21)
   + 0.5538659054623959 f(x_22) + 0.5578922057380298 f(x_23)
   + 0.7284850444592157 f(x_24) + 0.599531615230918 f(x_25)
   + 0.5349158079998414 f(x_26) + 0.4140648275772326 f(x_27)
   + 0.5998069848332084 f(x_28) + 0.5430314989154371 f(x_29)
   + 0.3415842369387747 f(x_30) + 0.5177366628692064 f(x_31)
   + 0.5719145248285835 f(x_32) + 0.3022169196908847 f(x_33)
   + 0.678839537987042 f(x_34) + 0.4000162241134526 f(x_35)
   + 0.6008538577921445 f(x_36) + 0.432406146008341 f(x_37)
   + 0.5327637355389663 f(x_38) + 0.2659164346788921 f(x_39)
   + 0.6781376569442155 f(x_40) + 0.5771063737958181 f(x_41)
   + 0.4674386788603919 f(x_42) + 0.6355885091061001 f(x_43)
   + 0.6614882478465188 f(x_44) + 0.7190379249517536 f(x_45)
   + 0.547686333588702 f(x_46) + 0.5184478942449634 f(x_47)
   + 0.4691636097716717 f(x_48) + 0.4965379129191728 f(x_49)
   + 0.5257835634829429 f(x_50) + 0.7414525122801037 f(x_51)
   + 0.6046673400269567 f(x_52) + 0.4471021463964859 f(x_53)
   + 0.2866315201611504 f(x_54) + 0.6408365638783001 f(x_55)
   + 0.3880225662974354 f(x_56) + 0.6463912021165078 f(x_57)
   + 0.6050029035500635 f(x_58) + 0.5044169787328026 f(x_59)
   + 0.4861477704764547 f(x_60) + 0.3482366785149183 f(x_61)
   + 0.4461714138233637 f(x_62) + 0.6457648518622634 f(x_63)
   + 0.6800658780836203 f(x_64) + 0.6919387519822957 f(x_65)
   + 0.3421600850800279 f(x_66) + 0.4122454226226201 f(x_67)
   + 0.4988825930715905 f(x_68) + 0.6710617617271853 f(x_69)
   + 0.3675049938559402 f(x_70) + 0.3754729852350688 f(x_71)
   + 0.6243267905422779 f(x_72) + 0.3861505089260161 f(x_73)
   + 0.6378630712067144 f(x_74) + 0.4173973658859637 f(x_75)
   + 0.2739089995526499 f(x_76) + 0.6364298450755668 f(x_77)
   + 0.6696778321578496 f(x_78) + 0.6615499605760862 f(x_79)
   + 0.2914734446111479 f(x_80) + 0.5634999007935964 f(x_81)
   + 0.6739204406878685 f(x_82) + 0.6643850469336702 f(x_83)
   + 0.2685208990525308 f(x_84) + 0.7304227525279559 f(x_85)
   + 0.7122253468488136 f(x_86) + 0.54876168485545 f(x_87)
   + 0.4803665747622226 f(x_88) + 0.5779481872627257 f(x_89)
   + 0.3126642605681893 f(x_90) + 0.5879654588592862 f(x_91)
   + 0.4805584373457109 f(x_92) + 0.3446325099192304 f(x_93)
   + 0.3331016210543281 f(x_94) + 0.3064584488688001 f(x_95)
   + 0.496639280951249 f(x_96) + 0.6802891167959441 f(x_97)
   + 0.3554746216755892 f(x_98) + 0.4512010129829367 f(x_99)
Subject To
 R0: x_0 + x_1 + x_2 + x_3 + x_4 + x_5 + x_6 + x_7 + x_8 + x_9 + x_10
   + x_11 + x_12 + x_13 + x_14 + x_15 + x_16 + x_17 + x_18 + x_19 + x_20
   + x_21 + x_22 + x_23 + x_24 + x_25 + x_26 + x_27 + x_28 + x_29 + x_30
   + x_31 + x_32 + x_33 + x_34 + x_35 + x_36 + x_37 + x_38 + x_39 + x_40
   + x_41 + x_42 + x_43 + x_44 + x_45 + x_46 + x_47 + x_48 + x_49 + x_50
   + x_51 + x_52 + x_53 + x_54 + x_55 + x_56 + x_57 + x_58 + x_59 + x_60
   + x_61 + x_62 + x_63 + x_64 + x_65 + x_66 + x_67 + x_68 + x_69 + x_70
   + x_71 + x_72 + x_73 + x_74 + x_75 + x_76 + x_77 + x_78 + x_79 + x_80
   + x_81 + x_82 + x_83 + x_84 + x_85 + x_86 + x_87 + x_88 + x_89 + x_90
   + x_91 + x_92 + x_93 + x_94 + x_95 + x_96 + x_97 + x_98 + x_99 = 5
Bounds
 x_0 <= 5
 x_1 <= 5
 x_2 <= 5
 x_3 <= 5
 x_4 <= 5
 x_5 <= 5
 x_6 <= 5
 x_7 <= 5
 x_8 <= 5
 x_9 <= 5
 x_10 <= 5
 x_11 <= 5
 x_12 <= 5
 x_13 <= 5
 x_14 <= 5
 x_15 <= 5
 x_16 <= 5
 x_17 <= 5
 x_18 <= 5
 x_19 <= 5
 x_20 <= 5
 x_21 <= 5
 x_22 <= 5
 x_23 <= 5
 x_24 <= 5
 x_25 <= 5
 x_26 <= 5
 x_27 <= 5
 x_28 <= 5
 x_29 <= 5
 x_30 <= 5
 x_31 <= 5
 x_32 <= 5
 x_33 <= 5
 x_34 <= 5
 x_35 <= 5
 x_36 <= 5
 x_37 <= 5
 x_38 <= 5
 x_39 <= 5
 x_40 <= 5
 x_41 <= 5
 x_42 <= 5
 x_43 <= 5
 x_44 <= 5
 x_45 <= 5
 x_46 <= 5
 x_47 <= 5
 x_48 <= 5
 x_49 <= 5
 x_50 <= 5
 x_51 <= 5
 x_52 <= 5
 x_53 <= 5
 x_54 <= 5
 x_55 <= 5
 x_56 <= 5
 x_57 <= 5
 x_58 <= 5
 x_59 <= 5
 x_60 <= 5
 x_61 <= 5
 x_62 <= 5
 x_63 <= 5
 x_64 <= 5
 x_65 <= 5
 x_66 <= 5
 x_67 <= 5
 x_68 <= 5
 x_69 <= 5
 x_70 <= 5
 x_71 <= 5
 x_72 <= 5
 x_73 <= 5
 x_74 <= 5
 x_75 <= 5
 x_76 <= 5
 x_77 <= 5
 x_78 <= 5
 x_79 <= 5
 x_80 <= 5
 x_81 <= 5
 x_82 <= 5
 x_83 <= 5
 x_84 <= 5
 x_85 <= 5
 x_86 <= 5
 x_87 <= 5
 x_88 <= 5
 x_89 <= 5
 x_90 <= 5
 x_91 <= 5
 x_92 <= 5
 x_93 <= 5
 x_94 <= 5
 x_95 <= 5
 x_96 <= 5
 x_97 <= 5
 x_98 <= 5
 x_99 <= 5
Generals
 x_0 x_1 x_2 x_3 x_4 x_5 x_6 x_7 x_8 x_9 x_10 x_11 x_12 x_13 x_14 x_15 x_16
 x_17 x_18 x_19 x_20 x_21 x_22 x_23 x_24 x_25 x_26 x_27 x_28 x_29 x_30 x_31
 x_32 x_33 x_34 x_35 x_36 x_37 x_38 x_39 x_40 x_41 x_42 x_43 x_44 x_45 x_46
 x_47 x_48 x_49 x_50 x_51 x_52 x_53 x_54 x_55 x_56 x_57 x_58 x_59 x_60 x_61
 x_62 x_63 x_64 x_65 x_66 x_67 x_68 x_69 x_70 x_71 x_72 x_73 x_74 x_75 x_76
 x_77 x_78 x_79 x_80 x_81 x_82 x_83 x_84 x_85 x_86 x_87 x_88 x_89 x_90 x_91
 x_92 x_93 x_94 x_95 x_96 x_97 x_98 x_99
General Constraints
 constr_x_0: f(x_0) = POW ( x_0 ^ 2 )
 constr_x_1: f(x_1) = POW ( x_1 ^ 2 )
 constr_x_2: f(x_2) = POW ( x_2 ^ 2 )
 constr_x_3: f(x_3) = POW ( x_3 ^ 2 )
 constr_x_4: f(x_4) = POW ( x_4 ^ 2 )
 constr_x_5: f(x_5) = POW ( x_5 ^ 2 )
 constr_x_6: f(x_6) = POW ( x_6 ^ 2 )
 constr_x_7: f(x_7) = POW ( x_7 ^ 2 )
 constr_x_8: f(x_8) = POW ( x_8 ^ 2 )
 constr_x_9: f(x_9) = POW ( x_9 ^ 2 )
 constr_x_10: f(x_10) = POW ( x_10 ^ 2 )
 constr_x_11: f(x_11) = POW ( x_11 ^ 2 )
 constr_x_12: f(x_12) = POW ( x_12 ^ 2 )
 constr_x_13: f(x_13) = POW ( x_13 ^ 2 )
 constr_x_14: f(x_14) = POW ( x_14 ^ 2 )
 constr_x_15: f(x_15) = POW ( x_15 ^ 2 )
 constr_x_16: f(x_16) = POW ( x_16 ^ 2 )
 constr_x_17: f(x_17) = POW ( x_17 ^ 2 )
 constr_x_18: f(x_18) = POW ( x_18 ^ 2 )
 constr_x_19: f(x_19) = POW ( x_19 ^ 2 )
 constr_x_20: f(x_20) = POW ( x_20 ^ 2 )
 constr_x_21: f(x_21) = POW ( x_21 ^ 2 )
 constr_x_22: f(x_22) = POW ( x_22 ^ 2 )
 constr_x_23: f(x_23) = POW ( x_23 ^ 2 )
 constr_x_24: f(x_24) = POW ( x_24 ^ 2 )
 constr_x_25: f(x_25) = POW ( x_25 ^ 2 )
 constr_x_26: f(x_26) = POW ( x_26 ^ 2 )
 constr_x_27: f(x_27) = POW ( x_27 ^ 2 )
 constr_x_28: f(x_28) = POW ( x_28 ^ 2 )
 constr_x_29: f(x_29) = POW ( x_29 ^ 2 )
 constr_x_30: f(x_30) = POW ( x_30 ^ 2 )
 constr_x_31: f(x_31) = POW ( x_31 ^ 2 )
 constr_x_32: f(x_32) = POW ( x_32 ^ 2 )
 constr_x_33: f(x_33) = POW ( x_33 ^ 2 )
 constr_x_34: f(x_34) = POW ( x_34 ^ 2 )
 constr_x_35: f(x_35) = POW ( x_35 ^ 2 )
 constr_x_36: f(x_36) = POW ( x_36 ^ 2 )
 constr_x_37: f(x_37) = POW ( x_37 ^ 2 )
 constr_x_38: f(x_38) = POW ( x_38 ^ 2 )
 constr_x_39: f(x_39) = POW ( x_39 ^ 2 )
 constr_x_40: f(x_40) = POW ( x_40 ^ 2 )
 constr_x_41: f(x_41) = POW ( x_41 ^ 2 )
 constr_x_42: f(x_42) = POW ( x_42 ^ 2 )
 constr_x_43: f(x_43) = POW ( x_43 ^ 2 )
 constr_x_44: f(x_44) = POW ( x_44 ^ 2 )
 constr_x_45: f(x_45) = POW ( x_45 ^ 2 )
 constr_x_46: f(x_46) = POW ( x_46 ^ 2 )
 constr_x_47: f(x_47) = POW ( x_47 ^ 2 )
 constr_x_48: f(x_48) = POW ( x_48 ^ 2 )
 constr_x_49: f(x_49) = POW ( x_49 ^ 2 )
 constr_x_50: f(x_50) = POW ( x_50 ^ 2 )
 constr_x_51: f(x_51) = POW ( x_51 ^ 2 )
 constr_x_52: f(x_52) = POW ( x_52 ^ 2 )
 constr_x_53: f(x_53) = POW ( x_53 ^ 2 )
 constr_x_54: f(x_54) = POW ( x_54 ^ 2 )
 constr_x_55: f(x_55) = POW ( x_55 ^ 2 )
 constr_x_56: f(x_56) = POW ( x_56 ^ 2 )
 constr_x_57: f(x_57) = POW ( x_57 ^ 2 )
 constr_x_58: f(x_58) = POW ( x_58 ^ 2 )
 constr_x_59: f(x_59) = POW ( x_59 ^ 2 )
 constr_x_60: f(x_60) = POW ( x_60 ^ 2 )
 constr_x_61: f(x_61) = POW ( x_61 ^ 2 )
 constr_x_62: f(x_62) = POW ( x_62 ^ 2 )
 constr_x_63: f(x_63) = POW ( x_63 ^ 2 )
 constr_x_64: f(x_64) = POW ( x_64 ^ 2 )
 constr_x_65: f(x_65) = POW ( x_65 ^ 2 )
 constr_x_66: f(x_66) = POW ( x_66 ^ 2 )
 constr_x_67: f(x_67) = POW ( x_67 ^ 2 )
 constr_x_68: f(x_68) = POW ( x_68 ^ 2 )
 constr_x_69: f(x_69) = POW ( x_69 ^ 2 )
 constr_x_70: f(x_70) = POW ( x_70 ^ 2 )
 constr_x_71: f(x_71) = POW ( x_71 ^ 2 )
 constr_x_72: f(x_72) = POW ( x_72 ^ 2 )
 constr_x_73: f(x_73) = POW ( x_73 ^ 2 )
 constr_x_74: f(x_74) = POW ( x_74 ^ 2 )
 constr_x_75: f(x_75) = POW ( x_75 ^ 2 )
 constr_x_76: f(x_76) = POW ( x_76 ^ 2 )
 constr_x_77: f(x_77) = POW ( x_77 ^ 2 )
 constr_x_78: f(x_78) = POW ( x_78 ^ 2 )
 constr_x_79: f(x_79) = POW ( x_79 ^ 2 )
 constr_x_80: f(x_80) = POW ( x_80 ^ 2 )
 constr_x_81: f(x_81) = POW ( x_81 ^ 2 )
 constr_x_82: f(x_82) = POW ( x_82 ^ 2 )
 constr_x_83: f(x_83) = POW ( x_83 ^ 2 )
 constr_x_84: f(x_84) = POW ( x_84 ^ 2 )
 constr_x_85: f(x_85) = POW ( x_85 ^ 2 )
 constr_x_86: f(x_86) = POW ( x_86 ^ 2 )
 constr_x_87: f(x_87) = POW ( x_87 ^ 2 )
 constr_x_88: f(x_88) = POW ( x_88 ^ 2 )
 constr_x_89: f(x_89) = POW ( x_89 ^ 2 )
 constr_x_90: f(x_90) = POW ( x_90 ^ 2 )
 constr_x_91: f(x_91) = POW ( x_91 ^ 2 )
 constr_x_92: f(x_92) = POW ( x_92 ^ 2 )
 constr_x_93: f(x_93) = POW ( x_93 ^ 2 )
 constr_x_94: f(x_94) = POW ( x_94 ^ 2 )
 constr_x_95: f(x_95) = POW ( x_95 ^ 2 )
 constr_x_96: f(x_96) = POW ( x_96 ^ 2 )
 constr_x_97: f(x_97) = POW ( x_97 ^ 2 )
 constr_x_98: f(x_98) = POW ( x_98 ^ 2 )
 constr_x_99: f(x_99) = POW ( x_99 ^ 2 )
End
